c Random 3-SAT formula
c Number of variables: 7
c Number of clauses: 30
p cnf 7 30
-2 -7 -5 0
-7 4 -6 0
-3 -7 -2 0
2 -4 -6 0
7 -5 3 0
5 3 4 0
-7 -1 2 0
-7 6 -3 0
-5 7 6 0
-2 -7 4 0
-5 -3 4 0
-6 -5 -7 0
-5 1 2 0
-3 -2 -7 0
1 2 3 0
-7 -2 1 0
4 2 -3 0
-3 -1 -4 0
7 -6 -1 0
-1 6 3 0
-1 4 3 0
-7 -5 -4 0
4 7 6 0
-6 -1 -2 0
4 3 -5 0
7 3 -6 0
3 1 4 0
6 -3 -5 0
-7 5 -2 0
-6 -5 4 0
